$ 0 represents an initially unknown value

letting fixed be
[
    [0,0,0,0,0,0,0,0,0],
    [0,0,0,0,0,0,0,0,0],
    [0,0,0,0,0,0,0,0,0],
    [0,0,0,0,0,0,0,0,0],
    [0,0,1,0,0,0,0,0,0],
    [0,0,0,0,0,0,2,0,0],
    [0,0,0,0,0,0,0,0,0],
    [0,0,0,0,0,0,0,0,0],
    [0,0,0,0,0,0,0,0,0]
]
